(set-logic FO)
(declare-sort Term 0)
(declare-fun f (Term) Bool)
(declare-fun g (Term) Bool)
(declare-fun p (Term) Bool)
(declare-fun q (Term) Bool)
(declare-fun r (Term) Bool)
(set-info :status unsat)
(assert (exists ((x Term)) (p x)))
(assert (forall ((x Term)) (=> (f x) (and (not (g x)) (r x)))))
(assert (forall ((x Term)) (=> (p x) (and (g x) (f x)))))
(assert (or (forall ((x Term)) (=> (p x) (q x))) (exists ((x Term)) (and (p x) (r x)))))
(assert (not (exists ((x Term)) (and (q x) (p x)))))
(check-sat)
(exit)
